p edge 100 969
e 3 1
e 12 1
e 22 1
e 32 1
e 35 1
e 43 1
e 44 1
e 54 1
e 56 1
e 60 1
e 61 1
e 62 1
e 69 1
e 71 1
e 76 1
e 80 1
e 81 1
e 83 1
e 85 1
e 88 1
e 98 1
e 3 2
e 4 2
e 21 2
e 26 2
e 34 2
e 46 2
e 50 2
e 53 2
e 59 2
e 61 2
e 62 2
e 63 2
e 68 2
e 81 2
e 82 2
e 85 2
e 93 2
e 97 2
e 98 2
e 99 2
e 100 2
e 7 3
e 9 3
e 15 3
e 21 3
e 25 3
e 34 3
e 41 3
e 42 3
e 53 3
e 54 3
e 56 3
e 62 3
e 63 3
e 66 3
e 74 3
e 80 3
e 85 3
e 91 3
e 5 4
e 7 4
e 8 4
e 12 4
e 14 4
e 17 4
e 18 4
e 30 4
e 31 4
e 32 4
e 44 4
e 53 4
e 54 4
e 58 4
e 74 4
e 75 4
e 77 4
e 93 4
e 97 4
e 98 4
e 15 5
e 18 5
e 23 5
e 30 5
e 36 5
e 37 5
e 46 5
e 54 5
e 56 5
e 58 5
e 59 5
e 60 5
e 63 5
e 64 5
e 72 5
e 82 5
e 83 5
e 95 5
e 8 6
e 21 6
e 23 6
e 25 6
e 39 6
e 52 6
e 54 6
e 56 6
e 58 6
e 64 6
e 68 6
e 70 6
e 73 6
e 75 6
e 80 6
e 82 6
e 97 6
e 9 7
e 10 7
e 13 7
e 14 7
e 18 7
e 22 7
e 28 7
e 34 7
e 39 7
e 42 7
e 43 7
e 47 7
e 48 7
e 51 7
e 58 7
e 59 7
e 63 7
e 70 7
e 79 7
e 86 7
e 92 7
e 93 7
e 97 7
e 100 7
e 23 8
e 26 8
e 35 8
e 45 8
e 47 8
e 57 8
e 69 8
e 73 8
e 74 8
e 75 8
e 76 8
e 78 8
e 79 8
e 81 8
e 82 8
e 83 8
e 84 8
e 85 8
e 91 8
e 93 8
e 99 8
e 10 9
e 14 9
e 17 9
e 22 9
e 23 9
e 24 9
e 31 9
e 40 9
e 42 9
e 44 9
e 55 9
e 64 9
e 68 9
e 69 9
e 71 9
e 85 9
e 90 9
e 95 9
e 11 10
e 18 10
e 26 10
e 35 10
e 43 10
e 48 10
e 56 10
e 57 10
e 61 10
e 64 10
e 69 10
e 70 10
e 71 10
e 78 10
e 80 10
e 85 10
e 90 10
e 96 10
e 98 10
e 16 11
e 20 11
e 24 11
e 26 11
e 28 11
e 29 11
e 34 11
e 35 11
e 38 11
e 40 11
e 49 11
e 54 11
e 59 11
e 63 11
e 65 11
e 66 11
e 70 11
e 74 11
e 75 11
e 77 11
e 80 11
e 91 11
e 96 11
e 100 11
e 13 12
e 15 12
e 16 12
e 17 12
e 20 12
e 40 12
e 49 12
e 50 12
e 56 12
e 73 12
e 92 12
e 96 12
e 97 12
e 98 12
e 20 13
e 23 13
e 24 13
e 25 13
e 27 13
e 29 13
e 37 13
e 40 13
e 42 13
e 47 13
e 53 13
e 58 13
e 70 13
e 74 13
e 78 13
e 79 13
e 90 13
e 97 13
e 100 13
e 18 14
e 19 14
e 20 14
e 36 14
e 40 14
e 41 14
e 52 14
e 53 14
e 57 14
e 59 14
e 60 14
e 64 14
e 67 14
e 72 14
e 75 14
e 77 14
e 79 14
e 84 14
e 88 14
e 91 14
e 20 15
e 23 15
e 29 15
e 36 15
e 42 15
e 43 15
e 52 15
e 54 15
e 59 15
e 72 15
e 74 15
e 79 15
e 82 15
e 84 15
e 86 15
e 99 15
e 18 16
e 24 16
e 26 16
e 28 16
e 34 16
e 44 16
e 61 16
e 64 16
e 66 16
e 74 16
e 76 16
e 91 16
e 96 16
e 25 17
e 32 17
e 40 17
e 44 17
e 63 17
e 64 17
e 70 17
e 76 17
e 91 17
e 20 18
e 25 18
e 33 18
e 38 18
e 43 18
e 45 18
e 48 18
e 50 18
e 52 18
e 62 18
e 78 18
e 81 18
e 87 18
e 91 18
e 94 18
e 96 18
e 97 18
e 23 19
e 28 19
e 33 19
e 36 19
e 39 19
e 44 19
e 54 19
e 61 19
e 63 19
e 64 19
e 65 19
e 68 19
e 69 19
e 71 19
e 72 19
e 76 19
e 84 19
e 94 19
e 95 19
e 99 19
e 21 20
e 22 20
e 23 20
e 26 20
e 28 20
e 31 20
e 40 20
e 43 20
e 48 20
e 49 20
e 51 20
e 52 20
e 57 20
e 61 20
e 71 20
e 72 20
e 78 20
e 80 20
e 81 20
e 82 20
e 84 20
e 93 20
e 98 20
e 26 21
e 28 21
e 32 21
e 38 21
e 40 21
e 46 21
e 47 21
e 60 21
e 63 21
e 72 21
e 73 21
e 81 21
e 84 21
e 86 21
e 88 21
e 91 21
e 37 22
e 39 22
e 40 22
e 43 22
e 44 22
e 45 22
e 51 22
e 52 22
e 53 22
e 55 22
e 59 22
e 72 22
e 77 22
e 78 22
e 80 22
e 81 22
e 87 22
e 96 22
e 98 22
e 25 23
e 32 23
e 38 23
e 40 23
e 45 23
e 46 23
e 48 23
e 50 23
e 57 23
e 59 23
e 60 23
e 62 23
e 63 23
e 65 23
e 67 23
e 71 23
e 75 23
e 76 23
e 77 23
e 94 23
e 96 23
e 98 23
e 100 23
e 26 24
e 27 24
e 29 24
e 40 24
e 49 24
e 56 24
e 58 24
e 59 24
e 60 24
e 68 24
e 72 24
e 76 24
e 86 24
e 98 24
e 99 24
e 29 25
e 37 25
e 40 25
e 41 25
e 49 25
e 52 25
e 56 25
e 59 25
e 71 25
e 79 25
e 90 25
e 93 25
e 98 25
e 30 26
e 42 26
e 46 26
e 56 26
e 61 26
e 77 26
e 82 26
e 84 26
e 88 26
e 94 26
e 96 26
e 98 26
e 100 26
e 34 27
e 35 27
e 39 27
e 42 27
e 43 27
e 48 27
e 53 27
e 54 27
e 55 27
e 61 27
e 73 27
e 74 27
e 75 27
e 85 27
e 88 27
e 89 27
e 92 27
e 96 27
e 62 28
e 66 28
e 73 28
e 74 28
e 79 28
e 80 28
e 81 28
e 85 28
e 95 28
e 31 29
e 40 29
e 43 29
e 44 29
e 50 29
e 51 29
e 57 29
e 58 29
e 59 29
e 60 29
e 69 29
e 70 29
e 74 29
e 83 29
e 88 29
e 89 29
e 91 29
e 93 29
e 97 29
e 99 29
e 31 30
e 33 30
e 35 30
e 43 30
e 48 30
e 53 30
e 59 30
e 60 30
e 61 30
e 63 30
e 64 30
e 67 30
e 68 30
e 83 30
e 84 30
e 85 30
e 88 30
e 91 30
e 94 30
e 39 31
e 40 31
e 42 31
e 43 31
e 56 31
e 57 31
e 61 31
e 80 31
e 85 31
e 48 32
e 68 32
e 81 32
e 85 32
e 86 32
e 87 32
e 90 32
e 94 32
e 34 33
e 51 33
e 62 33
e 64 33
e 66 33
e 69 33
e 70 33
e 77 33
e 79 33
e 80 33
e 83 33
e 86 33
e 89 33
e 93 33
e 100 33
e 35 34
e 38 34
e 39 34
e 53 34
e 55 34
e 59 34
e 62 34
e 65 34
e 66 34
e 67 34
e 76 34
e 80 34
e 83 34
e 95 34
e 36 35
e 37 35
e 47 35
e 49 35
e 50 35
e 56 35
e 70 35
e 78 35
e 82 35
e 86 35
e 87 35
e 92 35
e 96 35
e 43 36
e 48 36
e 51 36
e 54 36
e 57 36
e 60 36
e 67 36
e 72 36
e 75 36
e 78 36
e 80 36
e 82 36
e 83 36
e 92 36
e 95 36
e 42 37
e 51 37
e 55 37
e 64 37
e 65 37
e 73 37
e 79 37
e 80 37
e 88 37
e 94 37
e 98 37
e 39 38
e 49 38
e 50 38
e 53 38
e 64 38
e 65 38
e 79 38
e 88 38
e 89 38
e 92 38
e 93 38
e 97 38
e 98 38
e 100 38
e 48 39
e 54 39
e 55 39
e 61 39
e 66 39
e 67 39
e 69 39
e 70 39
e 79 39
e 80 39
e 87 39
e 92 39
e 96 39
e 41 40
e 42 40
e 47 40
e 61 40
e 67 40
e 77 40
e 79 40
e 81 40
e 83 40
e 90 40
e 100 40
e 61 41
e 74 41
e 81 41
e 89 41
e 91 41
e 93 41
e 56 42
e 61 42
e 62 42
e 69 42
e 74 42
e 75 42
e 88 42
e 89 42
e 94 42
e 97 42
e 45 43
e 71 43
e 76 43
e 79 43
e 46 44
e 53 44
e 58 44
e 68 44
e 69 44
e 78 44
e 100 44
e 49 45
e 57 45
e 77 45
e 80 45
e 81 45
e 84 45
e 87 45
e 91 45
e 92 45
e 98 45
e 100 45
e 54 46
e 63 46
e 75 46
e 76 46
e 80 46
e 85 46
e 91 46
e 100 46
e 49 47
e 61 47
e 66 47
e 68 47
e 70 47
e 75 47
e 80 47
e 93 47
e 94 47
e 50 48
e 55 48
e 58 48
e 59 48
e 61 48
e 82 48
e 92 48
e 99 48
e 100 48
e 53 49
e 58 49
e 69 49
e 79 49
e 82 49
e 84 49
e 85 49
e 94 49
e 95 49
e 53 50
e 56 50
e 65 50
e 67 50
e 72 50
e 87 50
e 90 50
e 100 50
e 76 51
e 80 51
e 81 51
e 84 51
e 89 51
e 94 51
e 100 51
e 55 52
e 58 52
e 62 52
e 79 52
e 54 53
e 62 53
e 63 53
e 67 53
e 72 53
e 74 53
e 77 53
e 80 53
e 82 53
e 83 53
e 94 53
e 95 53
e 97 53
e 98 53
e 59 54
e 62 54
e 65 54
e 72 54
e 85 54
e 96 54
e 98 54
e 63 55
e 66 55
e 67 55
e 68 55
e 81 55
e 84 55
e 85 55
e 86 55
e 87 55
e 89 55
e 93 55
e 99 55
e 59 56
e 62 56
e 65 56
e 68 56
e 77 56
e 81 56
e 82 56
e 96 56
e 97 56
e 59 57
e 61 57
e 64 57
e 72 57
e 82 57
e 85 57
e 91 57
e 97 57
e 59 58
e 63 58
e 66 58
e 78 58
e 86 58
e 97 58
e 99 58
e 66 59
e 71 59
e 74 59
e 85 59
e 90 59
e 91 59
e 93 59
e 94 59
e 100 59
e 62 60
e 63 60
e 84 60
e 87 60
e 90 60
e 71 61
e 73 61
e 86 61
e 89 61
e 90 61
e 93 61
e 94 61
e 97 61
e 99 61
e 67 62
e 70 62
e 71 62
e 76 62
e 79 62
e 97 62
e 98 62
e 67 63
e 68 63
e 69 63
e 70 63
e 73 63
e 79 63
e 84 63
e 85 63
e 86 63
e 88 63
e 89 63
e 91 63
e 97 63
e 98 63
e 67 64
e 69 64
e 70 64
e 71 64
e 81 64
e 85 64
e 91 64
e 95 64
e 67 65
e 73 65
e 78 65
e 81 65
e 89 65
e 90 65
e 74 66
e 81 66
e 82 66
e 90 66
e 91 66
e 94 66
e 74 67
e 81 67
e 96 67
e 72 68
e 92 68
e 96 68
e 72 69
e 75 69
e 76 69
e 81 69
e 84 69
e 85 69
e 90 69
e 75 70
e 77 70
e 89 70
e 99 70
e 72 71
e 74 71
e 78 71
e 90 71
e 91 71
e 93 71
e 100 71
e 74 72
e 90 72
e 92 72
e 95 72
e 75 73
e 76 73
e 82 73
e 83 73
e 86 73
e 90 73
e 91 73
e 78 74
e 80 74
e 81 74
e 89 74
e 93 74
e 98 74
e 76 75
e 80 75
e 83 75
e 87 75
e 93 75
e 77 76
e 82 76
e 90 76
e 92 76
e 99 76
e 78 77
e 81 77
e 89 77
e 94 77
e 100 77
e 82 78
e 87 78
e 90 78
e 91 78
e 92 78
e 93 78
e 95 78
e 93 79
e 86 80
e 82 81
e 87 81
e 88 81
e 93 81
e 98 81
e 88 82
e 92 82
e 85 83
e 89 83
e 92 83
e 97 83
e 99 83
e 86 84
e 87 84
e 86 85
e 87 85
e 89 85
e 96 85
e 99 85
e 100 85
e 87 86
e 97 86
e 88 87
e 90 88
e 90 89
e 95 90
e 97 91
e 99 93
e 96 94
e 100 95
e 100 97
